presolving:
(round 1, fast)       0 del vars, 0 del conss, 0 add conss, 29578 chg bounds, 0 chg sides, 6203 chg coeffs, 0 upgd conss, 0 impls, 0 clqs
   (0.3s) running MILP presolver
   (0.3s) MILP presolver (2 rounds): 0 aggregations, 0 fixings, 493 bound changes
(round 2, medium)     0 del vars, 0 del conss, 0 add conss, 30071 chg bounds, 0 chg sides, 6203 chg coeffs, 0 upgd conss, 0 impls, 0 clqs
(round 3, exhaustive) 0 del vars, 847 del conss, 0 add conss, 30071 chg bounds, 847 chg sides, 6696 chg coeffs, 0 upgd conss, 0 impls, 0 clqs
(round 4, exhaustive) 0 del vars, 1362 del conss, 0 add conss, 30071 chg bounds, 1362 chg sides, 6696 chg coeffs, 0 upgd conss, 0 impls, 0 clqs
(round 5, exhaustive) 0 del vars, 1489 del conss, 0 add conss, 30071 chg bounds, 1489 chg sides, 6696 chg coeffs, 0 upgd conss, 0 impls, 0 clqs
(round 6, exhaustive) 0 del vars, 1575 del conss, 0 add conss, 30071 chg bounds, 1575 chg sides, 6696 chg coeffs, 0 upgd conss, 0 impls, 0 clqs
(round 7, exhaustive) 0 del vars, 1575 del conss, 0 add conss, 30071 chg bounds, 1575 chg sides, 6696 chg coeffs, 21800 upgd conss, 0 impls, 0 clqs
   (0.8s) probing: 51/187 (27.3%) - 0 fixings, 0 aggregations, 0 implications, 0 bound changes
   (0.8s) probing aborted: 50/50 successive totally useless probings
   (1.0s) symmetry computation started: requiring (bin +, int -, cont +), (fixed: bin -, int +, cont -)
   (1.0s) no symmetry present
presolving (8 rounds: 8 fast, 7 medium, 6 exhaustive):
 0 deleted vars, 1575 deleted constraints, 0 added constraints, 30071 tightened bounds, 0 added holes, 1575 changed sides, 6696 changed coefficients
 21800 implications, 0 cliques
presolved problem has 23562 variables (187 bin, 0 int, 0 impl, 23375 cont) and 22112 constraints
  21800 constraints of type <varbound>
    312 constraints of type <linear>
Presolving Time: 0.93

 time | node  | left  |LP iter|LP it/n|mem/heur|mdpt |vars |cons |rows |cuts |sepa|confs|strbr|  dualbound   | primalbound  |  gap   | compl. 
p 1.2s|     1 |     0 |   251 |     - |   locks|   0 |  23k|  22k|  22k|   0 |  0 |   0 |   0 | 0.000000e+00 | 1.445799e+06 |    Inf | unknown
i 1.2s|     1 |     0 |   251 |     - |  oneopt|   0 |  23k|  22k|  22k|   0 |  0 |   0 |   0 | 0.000000e+00 | 1.150266e+06 |    Inf | unknown
 10.1s|     1 |     0 | 11284 |     - |   213M |   0 |  23k|  22k|  22k|   0 |  0 |   0 |   0 | 9.228773e+05 | 1.150266e+06 |  24.64%| unknown
r10.1s|     1 |     0 | 11284 |     - |simplero|   0 |  23k|  22k|  22k|   0 |  0 |   0 |   0 | 9.228773e+05 | 9.401823e+05 |   1.88%| unknown
r10.1s|     1 |     0 | 11284 |     - |shifting|   0 |  23k|  22k|  22k|   0 |  0 |   0 |   0 | 9.228773e+05 | 9.367163e+05 |   1.50%| unknown
 10.2s|     1 |     0 | 11306 |     - |   220M |   0 |  23k|  22k|  22k|   1 |  1 |   0 |   0 | 9.228964e+05 | 9.367163e+05 |   1.50%| unknown
r10.2s|     1 |     0 | 11306 |     - |shifting|   0 |  23k|  22k|  22k|   1 |  1 |   0 |   0 | 9.228964e+05 | 9.362468e+05 |   1.45%| unknown
 10.3s|     1 |     0 | 11357 |     - |   224M |   0 |  23k|  22k|  22k|   2 |  2 |   0 |   0 | 9.229664e+05 | 9.362468e+05 |   1.44%| unknown
r10.9s|     1 |     0 | 12539 |     - |intshift|   0 |  23k|  22k|  22k|   2 |  4 |   0 |   0 | 9.229664e+05 | 9.340130e+05 |   1.20%| unknown
d11.2s|     1 |     0 | 12799 |     - |farkasdi|   0 |  23k|  22k|  22k|   0 |  4 |   0 |   0 | 9.229664e+05 | 9.325961e+05 |   1.04%| unknown
d11.2s|     1 |     0 | 12851 |     - |farkasdi|   0 |  23k|  22k|  22k|   0 |  4 |   0 |   0 | 9.229664e+05 | 9.324794e+05 |   1.03%| unknown
d11.3s|     1 |     0 | 12947 |     - |farkasdi|   0 |  23k|  22k|  22k|   0 |  4 |   0 |   0 | 9.229664e+05 | 9.315405e+05 |   0.93%| unknown
d11.4s|     1 |     0 | 13067 |     - |farkasdi|   0 |  23k|  22k|  22k|   0 |  4 |   0 |   0 | 9.229664e+05 | 9.312155e+05 |   0.89%| unknown
d11.5s|     1 |     0 | 13086 |     - |farkasdi|   0 |  23k|  22k|  22k|   0 |  4 |   0 |   0 | 9.229664e+05 | 9.278104e+05 |   0.52%| unknown
d11.7s|     1 |     0 | 13327 |     - |farkasdi|   0 |  23k|  22k|  22k|   0 |  4 |   0 |   0 | 9.229664e+05 | 9.274299e+05 |   0.48%| unknown
 time | node  | left  |LP iter|LP it/n|mem/heur|mdpt |vars |cons |rows |cuts |sepa|confs|strbr|  dualbound   | primalbound  |  gap   | compl. 
d11.7s|     1 |     0 | 13428 |     - |farkasdi|   0 |  23k|  22k|  22k|   0 |  4 |   0 |   0 | 9.229664e+05 | 9.252067e+05 |   0.24%| unknown
d11.8s|     1 |     0 | 13482 |     - |farkasdi|   0 |  23k|  22k|  22k|   0 |  4 |   0 |   0 | 9.229664e+05 | 9.243090e+05 |   0.15%| unknown
L14.3s|     1 |     0 | 14482 |     - |    rens|   0 |  23k|  22k|  22k|   2 |  4 | 988 |   0 | 9.229664e+05 | 9.234510e+05 |   0.05%| unknown
 14.7s|     1 |     0 | 14482 |     - |   247M |   0 |  23k|  22k|  22k|   2 |  4 | 988 |   0 | 9.229664e+05 | 9.234510e+05 |   0.05%| unknown
 14.8s|     1 |     0 | 14482 |     - |   250M |   0 |  23k|  22k|  17k|   2 |  4 | 988 |   0 | 9.229664e+05 | 9.234510e+05 |   0.05%| unknown
 14.9s|     1 |     0 | 14515 |     - |   251M |   0 |  23k|  22k|  13k|   5 |  5 | 988 |   0 | 9.230156e+05 | 9.234510e+05 |   0.05%| unknown
 15.0s|     1 |     0 | 14515 |     - |   252M |   0 |  23k|  22k|  13k|   5 |  5 | 988 |   0 | 9.230156e+05 | 9.234510e+05 |   0.05%| unknown
 15.0s|     1 |     0 | 14515 |     - |   252M |   0 |  23k|  13k|  13k|   5 |  6 | 988 |   0 | 9.230156e+05 | 9.234510e+05 |   0.05%| unknown
 15.1s|     1 |     0 | 14548 |     - |   253M |   0 |  23k|  13k|  13k|   8 |  7 | 988 |   0 | 9.230391e+05 | 9.234510e+05 |   0.04%| unknown
 15.2s|     1 |     0 | 14548 |     - |   253M |   0 |  23k|  13k|  13k|   8 |  7 | 988 |   0 | 9.230391e+05 | 9.234510e+05 |   0.04%| unknown
(run 1, node 1) restarting after 84 global fixings of integer variables

(restart) converted 8 cuts from the global cut pool into linear constraints

presolving:
(round 1, fast)       5834 del vars, 0 del conss, 0 add conss, 0 chg bounds, 0 chg sides, 399 chg coeffs, 0 upgd conss, 21800 impls, 0 clqs
   (15.7s) running MILP presolver
   (15.7s) MILP presolver found nothing
presolving (2 rounds: 2 fast, 1 medium, 1 exhaustive):
 5834 deleted vars, 0 deleted constraints, 0 added constraints, 0 tightened bounds, 0 added holes, 0 changed sides, 399 changed coefficients
 21800 implications, 0 cliques
presolved problem has 17728 variables (103 bin, 0 int, 0 impl, 17625 cont) and 12998 constraints
  12724 constraints of type <varbound>
    274 constraints of type <linear>
Presolving Time: 1.51
transformed 54/59 original solutions to the transformed problem space

 time | node  | left  |LP iter|LP it/n|mem/heur|mdpt |vars |cons |rows |cuts |sepa|confs|strbr|  dualbound   | primalbound  |  gap   | compl. 
 18.1s|     1 |     0 | 18409 |     - |   273M |   0 |  17k|  12k|  12k|   0 |  0 | 988 |   0 | 9.230391e+05 | 9.234510e+05 |   0.04%| unknown
 18.1s|     1 |     0 | 18409 |     - |   273M |   0 |  17k|  12k|  12k|   0 |  0 | 988 |   0 | 9.230391e+05 | 9.234510e+05 |   0.04%| unknown
 18.2s|     1 |     0 | 18432 |     - |   275M |   0 |  17k|  12k|  10k|   2 |  1 | 988 |   0 | 9.230431e+05 | 9.234510e+05 |   0.04%| unknown
 18.2s|     1 |     0 | 18432 |     - |   276M |   0 |  17k|  12k|  10k|   2 |  1 | 988 |   0 | 9.230431e+05 | 9.234510e+05 |   0.04%| unknown
 18.3s|     1 |     0 | 18444 |     - |   277M |   0 |  17k|  12k|  10k|   3 |  2 | 988 |   0 | 9.230444e+05 | 9.234510e+05 |   0.04%| unknown
 18.4s|     1 |     0 | 18454 |     - |   278M |   0 |  17k|  12k|  10k|   6 |  3 | 988 |   0 | 9.230466e+05 | 9.234510e+05 |   0.04%| unknown
 18.5s|     1 |     0 | 18473 |     - |   280M |   0 |  17k|  12k|  10k|   8 |  4 | 988 |   0 | 9.230511e+05 | 9.234510e+05 |   0.04%| unknown
 18.5s|     1 |     0 | 18474 |     - |   281M |   0 |  17k|  12k|  10k|   9 |  5 | 988 |   0 | 9.230511e+05 | 9.234510e+05 |   0.04%| unknown
 18.7s|     1 |     0 | 18484 |     - |   282M |   0 |  17k|  12k|  10k|  11 |  6 | 988 |   0 | 9.230521e+05 | 9.234510e+05 |   0.04%| unknown
 18.8s|     1 |     0 | 18485 |     - |   284M |   0 |  17k|  12k|  10k|  12 |  7 | 988 |   0 | 9.230521e+05 | 9.234510e+05 |   0.04%| unknown
 18.9s|     1 |     0 | 18486 |     - |   285M |   0 |  17k|  12k|  10k|  13 |  8 | 988 |   0 | 9.230521e+05 | 9.234510e+05 |   0.04%| unknown
 19.0s|     1 |     0 | 18501 |     - |   288M |   0 |  17k|  12k|  10k|  15 | 10 | 988 |   0 | 9.230785e+05 | 9.234510e+05 |   0.04%| unknown
 19.0s|     1 |     0 | 18501 |     - |   289M |   0 |  17k|  10k|  10k|  15 | 12 | 988 |   0 | 9.230785e+05 | 9.234510e+05 |   0.04%| unknown
(run 2, node 1) restarting after 24 global fixings of integer variables

(restart) converted 15 cuts from the global cut pool into linear constraints

presolving:
(round 1, fast)       2649 del vars, 0 del conss, 0 add conss, 0 chg bounds, 0 chg sides, 0 chg coeffs, 0 upgd conss, 21800 impls, 0 clqs
   (20.5s) running MILP presolver
   (20.5s) MILP presolver found nothing
presolving (2 rounds: 2 fast, 1 medium, 1 exhaustive):
 2649 deleted vars, 0 deleted constraints, 0 added constraints, 0 tightened bounds, 0 added holes, 0 changed sides, 0 changed coefficients
 21800 implications, 0 cliques
presolved problem has 15079 variables (79 bin, 0 int, 0 impl, 15000 cont) and 10079 constraints
   9811 constraints of type <varbound>
    268 constraints of type <linear>
Presolving Time: 2.17
transformed 77/86 original solutions to the transformed problem space

 time | node  | left  |LP iter|LP it/n|mem/heur|mdpt |vars |cons |rows |cuts |sepa|confs|strbr|  dualbound   | primalbound  |  gap   | compl. 
 22.0s|     1 |     0 | 21484 |     - |   308M |   0 |  15k|  10k|  10k|   0 |  0 | 988 |   0 | 9.230785e+05 | 9.234510e+05 |   0.04%| unknown
 22.1s|     1 |     0 | 21484 |     - |   308M |   0 |  15k|  10k|  10k|   0 |  0 | 988 |   0 | 9.230785e+05 | 9.234510e+05 |   0.04%| unknown
 22.1s|     1 |     0 | 21490 |     - |   310M |   0 |  15k|  10k|8728 |   2 |  1 | 988 |   0 | 9.230785e+05 | 9.234510e+05 |   0.04%| unknown
 22.2s|     1 |     0 | 21493 |     - |   311M |   0 |  15k|  10k|8729 |   3 |  2 | 988 |   0 | 9.230785e+05 | 9.234510e+05 |   0.04%| unknown
 22.3s|     1 |     0 | 21501 |     - |   312M |   0 |  15k|  10k|8730 |   4 |  3 | 988 |   0 | 9.230789e+05 | 9.234510e+05 |   0.04%| unknown
 22.3s|     1 |     0 | 21501 |     - |   312M |   0 |  15k|  10k|8730 |   4 |  3 | 988 |   0 | 9.230789e+05 | 9.234510e+05 |   0.04%| unknown
 22.4s|     1 |     0 | 21502 |     - |   313M |   0 |  15k|  10k|8612 |   5 |  4 | 988 |   0 | 9.230789e+05 | 9.234510e+05 |   0.04%| unknown
 22.5s|     1 |     0 | 21507 |     - |   316M |   0 |  15k|  10k|8613 |   6 |  5 | 988 |   0 | 9.230789e+05 | 9.234510e+05 |   0.04%| unknown
(run 3, node 1) restarting after 12 global fixings of integer variables

(restart) converted 6 cuts from the global cut pool into linear constraints

presolving:
(round 1, fast)       1512 del vars, 0 del conss, 0 add conss, 0 chg bounds, 0 chg sides, 5842 chg coeffs, 0 upgd conss, 21800 impls, 0 clqs
presolving (2 rounds: 2 fast, 1 medium, 1 exhaustive):
 1512 deleted vars, 0 deleted constraints, 0 added constraints, 0 tightened bounds, 0 added holes, 0 changed sides, 5842 changed coefficients
 21800 implications, 0 cliques
presolved problem has 13567 variables (67 bin, 0 int, 0 impl, 13500 cont) and 8574 constraints
   8311 constraints of type <varbound>
    262 constraints of type <linear>
      1 constraints of type <logicor>
Presolving Time: 2.96
transformed 83/100 original solutions to the transformed problem space

 time | node  | left  |LP iter|LP it/n|mem/heur|mdpt |vars |cons |rows |cuts |sepa|confs|strbr|  dualbound   | primalbound  |  gap   | compl. 
 25.6s|     1 |     0 | 24643 |     - |   325M |   0 |  13k|8574 |8573 |   0 |  0 |  10k|   0 | 9.230789e+05 | 9.234510e+05 |   0.04%| unknown
 25.6s|     1 |     0 | 24643 |     - |   326M |   0 |  13k|8574 |8573 |   0 |  0 |  10k|   0 | 9.230789e+05 | 9.234510e+05 |   0.04%| unknown
 25.6s|     1 |     0 | 24644 |     - |   327M |   0 |  13k|8574 |7959 |   1 |  1 |  10k|   0 | 9.230789e+05 | 9.234510e+05 |   0.04%| unknown
 25.7s|     1 |     0 | 24653 |     - |   328M |   0 |  13k|8574 |7960 |   2 |  2 |  10k|   0 | 9.230789e+05 | 9.234510e+05 |   0.04%| unknown
 25.8s|     1 |     0 | 24654 |     - |   329M |   0 |  13k|8574 |7961 |   3 |  3 |  10k|   0 | 9.230789e+05 | 9.234510e+05 |   0.04%| unknown
 25.9s|     1 |     0 | 24655 |     - |   330M |   0 |  13k|8574 |7962 |   4 |  4 |  10k|   0 | 9.230789e+05 | 9.234510e+05 |   0.04%| unknown
 26.8s|     1 |     2 | 25104 |     - |   331M |   0 |  13k|7944 |7962 |   4 |  6 |  10k|   1 | 9.231006e+05 | 9.234510e+05 |   0.04%| unknown
(run 4, node 1) restarting after 5 global fixings of integer variables

(restart) converted 4 cuts from the global cut pool into linear constraints

presolving:
(round 1, fast)       630 del vars, 0 del conss, 0 add conss, 0 chg bounds, 0 chg sides, 0 chg coeffs, 0 upgd conss, 21800 impls, 0 clqs
   (27.3s) running MILP presolver
   (27.4s) MILP presolver found nothing
presolving (2 rounds: 2 fast, 1 medium, 1 exhaustive):
 630 deleted vars, 0 deleted constraints, 0 added constraints, 0 tightened bounds, 0 added holes, 0 changed sides, 0 changed coefficients
 21800 implications, 0 cliques
presolved problem has 12937 variables (62 bin, 0 int, 0 impl, 12875 cont) and 7948 constraints
   7686 constraints of type <varbound>
    261 constraints of type <linear>
      1 constraints of type <logicor>
Presolving Time: 3.56
transformed 85/100 original solutions to the transformed problem space

 time | node  | left  |LP iter|LP it/n|mem/heur|mdpt |vars |cons |rows |cuts |sepa|confs|strbr|  dualbound   | primalbound  |  gap   | compl. 
 28.8s|     1 |     0 | 27365 |     - |   333M |   0 |  12k|7948 |7947 |   0 |  0 |  10k|   1 | 9.231006e+05 | 9.234510e+05 |   0.04%| unknown
 28.8s|     1 |     0 | 27365 |     - |   333M |   0 |  12k|7948 |7947 |   0 |  0 |  10k|   1 | 9.231006e+05 | 9.234510e+05 |   0.04%| unknown
 28.9s|     1 |     0 | 27367 |     - |   335M |   0 |  12k|7948 |6963 |   2 |  1 |  10k|   1 | 9.231006e+05 | 9.234510e+05 |   0.04%| unknown
 28.9s|     1 |     0 | 27369 |     - |   335M |   0 |  12k|7948 |6964 |   3 |  2 |  10k|   1 | 9.231006e+05 | 9.234510e+05 |   0.04%| unknown
 29.6s|     1 |     2 | 27663 |     - |   336M |   0 |  12k|6941 |6964 |   3 |  4 |  19k|   2 | 9.231006e+05 | 9.234510e+05 |   0.04%| unknown
 40.7s|   100 |    77 | 35835 | 128.0 |   348M |  21 |  12k|6958 |6943 |  21 |  2 |  19k| 167 | 9.231891e+05 | 9.234510e+05 |   0.03%| unknown
 44.9s|   200 |   129 | 39785 |  84.4 |   350M |  24 |  12k|6965 |6941 |  31 |  3 |  19k| 211 | 9.232151e+05 | 9.234510e+05 |   0.03%|  18.09%
 49.1s|   300 |   189 | 43667 |  69.4 |   352M |  27 |  12k|6967 |6942 |  35 |  2 |  19k| 230 | 9.232151e+05 | 9.234510e+05 |   0.03%|  20.54%
 52.4s|   400 |   221 | 46815 |  60.0 |   352M |  27 |  12k|6971 |6941 |  39 |  0 |  19k| 246 | 9.232346e+05 | 9.234510e+05 |   0.02%|  27.15%
 55.8s|   500 |   241 | 50288 |  55.0 |   353M |  31 |  12k|6972 |6941 |  48 |  1 |  19k| 264 | 9.232589e+05 | 9.234510e+05 |   0.02%|  32.51%
 59.3s|   600 |   249 | 52393 |  49.3 |   354M |  31 |  12k|6972 |6941 |  50 |  1 |  19k| 319 | 9.232765e+05 | 9.234510e+05 |   0.02%|  38.31%
 61.6s|   700 |   299 | 54425 |  45.2 |   357M |  32 |  12k|6975 |6942 |  57 |  0 |  19k| 336 | 9.232765e+05 | 9.234510e+05 |   0.02%|  41.94%
 63.5s|   800 |   329 | 56281 |  41.9 |   357M |  32 |  12k|6975 |6941 |  61 |  1 |  19k| 354 | 9.232797e+05 | 9.234510e+05 |   0.02%|  43.95%
 65.5s|   900 |   305 | 58265 |  39.4 |   357M |  32 |  12k|6981 |6941 |  66 |  0 |  19k| 374 | 9.232827e+05 | 9.234510e+05 |   0.02%|  49.49%
 67.1s|  1000 |   283 | 59898 |  37.1 |   357M |  32 |  12k|6982 |6942 |  66 |  0 |  19k| 386 | 9.232864e+05 | 9.234510e+05 |   0.02%|  52.55%
 time | node  | left  |LP iter|LP it/n|mem/heur|mdpt |vars |cons |rows |cuts |sepa|confs|strbr|  dualbound   | primalbound  |  gap   | compl. 
 68.7s|  1100 |   233 | 61349 |  35.1 |   357M |  33 |  12k|6982 |6944 |  66 |  2 |  19k| 397 | 9.233120e+05 | 9.234510e+05 |   0.02%|  60.20%
 70.1s|  1200 |   179 | 62738 |  33.3 |   358M |  33 |  12k|6982 |6950 |  69 |  0 |  19k| 399 | 9.233252e+05 | 9.234510e+05 |   0.01%|  66.94%
 71.3s|  1300 |   123 | 63718 |  31.5 |   359M |  33 |  12k|6982 |6945 |  71 |  0 |  19k| 405 | 9.233473e+05 | 9.234510e+05 |   0.01%|  78.15%
 72.6s|  1400 |    37 | 64513 |  29.8 |   359M |  33 |  12k|6982 |6965 |  71 |  0 |  19k| 415 | 9.233645e+05 | 9.234510e+05 |   0.01%|  84.59%

SCIP Status        : problem is solved [optimal solution found]
Solving Time (sec) : 72.96
Solving Nodes      : 1437 (total of 1441 nodes in 5 runs)
Primal Bound       : +9.23451000000000e+05 (430 solutions)
Dual Bound         : +9.23451000000000e+05
Gap                : 0.00 %
Solve Status: optimal
Solve Time: 72.97 seconds
Objective Value: 923451.00
